
******************************************************************************
This program contains Ipopt, a library for large-scale nonlinear optimization.
 Ipopt is released as open source code under the Eclipse Public License (EPL).
         For more information visit http://projects.coin-or.org/Ipopt

This version of Ipopt was compiled from source code available at
    https://github.com/IDAES/Ipopt as part of the Institute for the Design of
    Advanced Energy Systems Process Systems Engineering Framework (IDAES PSE
    Framework) Copyright (c) 2018-2019. See https://github.com/IDAES/idaes-pse.

This version of Ipopt was compiled using HSL, a collection of Fortran codes
    for large-scale scientific computation.  All technical papers, sales and
    publicity material resulting from use of the HSL codes within IPOPT must
    contain the following acknowledgement:
        HSL, a collection of Fortran codes for large-scale scientific
        computation. See http://www.hsl.rl.ac.uk.
******************************************************************************

This is Ipopt version 3.13.2, running with linear solver ma27.

Number of nonzeros in equality constraint Jacobian...:     1840
Number of nonzeros in inequality constraint Jacobian.:        0
Number of nonzeros in Lagrangian Hessian.............:     3296

Total number of variables............................:      640
                     variables with only lower bounds:      128
                variables with lower and upper bounds:      448
                     variables with only upper bounds:        0
Total number of equality constraints.................:      632
Total number of inequality constraints...............:        0
        inequality constraints with only lower bounds:        0
   inequality constraints with lower and upper bounds:        0
        inequality constraints with only upper bounds:        0

iter    objective    inf_pr   inf_du lg(mu)  ||d||  lg(rg) alpha_du alpha_pr  ls
   0  0.0000000e+00 4.97e+00 1.92e-13  -1.0 0.00e+00    -  0.00e+00 0.00e+00   0
   1  1.0065148e+02 3.66e+00 4.52e+05  -1.0 3.20e+05    -  1.82e-01 2.31e-01h  1
   2  7.8354511e+02 2.84e+00 2.58e+07  -1.0 1.08e+06  -4.0 1.84e-03 1.96e-01h  1
   3  7.7180600e+02 1.86e+00 1.18e+08  -1.0 9.87e+05  -2.7 5.18e-04 8.27e-03f  3
   4  7.8853782e+02 1.83e+00 1.70e+09  -1.0 6.42e+05  -1.3 1.68e-02 1.02e-02h  3
   5  8.0290072e+02 2.28e+00 6.64e+09  -1.0 6.52e+05  -0.9 6.06e-02 1.10e-02h  2
   6  8.0516330e+02 2.31e+00 6.69e+09  -1.0 6.23e+05  -1.4 1.08e-01 8.89e-03h  2
   7  8.6240849e+02 2.12e+00 4.46e+09  -1.0 4.77e+05  -1.9 1.07e-01 9.61e-02h  2
   8  8.8826458e+02 2.30e+00 3.83e+09  -1.0 5.82e+05  -2.3 4.72e-02 5.01e-02h  2
   9  1.0414164e+03 2.40e+00 4.65e+09  -1.0 6.17e+05  -1.9 2.66e-01 7.59e-02h  3
iter    objective    inf_pr   inf_du lg(mu)  ||d||  lg(rg) alpha_du alpha_pr  ls
  10  1.0637341e+03 2.37e+00 4.82e+09  -1.0 6.99e+05  -1.5 1.64e-02 1.46e-02h  3
  11  1.0436343e+03 2.37e+00 4.95e+09  -1.0 4.67e+06  -2.0 8.57e-03 1.60e-03f  3
  12  1.2696400e+03 2.70e+00 4.29e+09  -1.0 7.55e+05  -1.5 1.89e-01 9.64e-02h  1
  13  1.2690228e+03 2.70e+00 4.29e+09  -1.0 1.51e+06  -2.0 9.86e-02 1.61e-04f  1
  14r 1.2690228e+03 2.70e+00 9.99e+02   0.4 0.00e+00  -1.6 0.00e+00 2.78e-07R  5
  15r 1.2690235e+03 1.10e+00 9.89e+02   0.4 1.96e+03    -  6.44e-02 1.17e-03f  1
  16  1.5867117e+03 1.05e+00 4.85e+03  -1.0 1.45e+06    -  2.23e-01 4.46e-02h  4
  17  1.6405404e+03 1.03e+00 5.03e+03  -1.0 9.16e+05    -  2.70e-01 2.02e-02h  5
  18  1.6643392e+03 1.01e+00 5.07e+03  -1.0 6.88e+05    -  2.87e-01 1.93e-02h  5
  19  1.6788465e+03 9.95e-01 5.03e+03  -1.0 6.72e+05    -  3.24e-01 1.86e-02h  5
iter    objective    inf_pr   inf_du lg(mu)  ||d||  lg(rg) alpha_du alpha_pr  ls
  20  1.6979559e+03 9.78e-01 4.97e+03  -1.0 5.96e+05    -  3.37e-01 1.72e-02h  5
  21  1.7843181e+03 9.49e-01 4.89e+03  -1.0 9.18e+05    -  2.58e-01 3.54e-02h  4
  22  2.4343802e+03 8.60e-01 2.63e+03  -1.0 1.31e+06    -  3.65e-01 9.71e-02h  4
  23  2.4306807e+03 8.56e-01 2.74e+03  -1.0 6.24e+06    -  1.65e-01 7.73e-03f  5
  24  2.5792399e+03 8.24e-01 4.58e+03  -1.0 2.14e+06    -  3.92e-01 8.07e-02h  3
  25  2.5793134e+03 8.24e-01 5.51e+05  -1.0 3.32e+05  -2.1 6.99e-01 3.68e-05h  1
  26  3.4832802e+03 5.92e-01 5.21e+08  -1.0 3.33e+05  -2.6 8.81e-01 3.34e-01h  2
  27  3.4924169e+03 5.89e-01 5.18e+08  -1.0 4.81e+05  -2.1 5.33e-01 3.42e-03h  5
  28  3.5095412e+03 5.83e-01 5.15e+08  -1.0 2.31e+05  -1.7 9.61e-01 1.02e-02h  5
  29  3.5131672e+03 5.83e-01 5.14e+08  -1.0 1.05e+06  -2.2 2.70e-01 6.98e-04h  7
iter    objective    inf_pr   inf_du lg(mu)  ||d||  lg(rg) alpha_du alpha_pr  ls
  30  3.5281682e+03 5.78e-01 5.10e+08  -1.0 2.46e+05  -1.8 9.91e-01 8.26e-03h  5
  31  3.5595721e+03 5.67e-01 5.17e+08  -1.0 2.30e+05  -1.3 3.08e-01 1.93e-02h  4
  32  3.5694684e+03 5.64e-01 5.13e+08  -1.0 2.65e+05  -1.8 9.53e-01 4.91e-03h  1
  33  3.5724295e+03 5.64e-01 5.13e+08  -1.0 1.25e+06  -2.3 5.65e-01 3.96e-04h  7
  34  3.4578301e+03 5.20e-01 4.89e+08  -1.0 4.73e+05  -2.8 5.85e-01 1.24e-01f  4
  35  2.6956703e+03 5.00e-01 1.08e+09  -1.0 9.08e+05  -3.2 2.73e-01 1.16e-01f  3
  36  2.9326033e+03 3.08e-01 1.36e+09  -1.0 4.03e+05  -2.8 9.25e-01 4.95e-01h  2
  37  3.8650081e+03 1.78e-01 2.12e+09  -1.0 2.30e+05  -2.4 3.55e-01 9.90e-01h  1
  38  4.0136320e+03 1.65e-01 2.00e+09  -1.0 4.33e+04  -2.0 1.15e-02 4.95e-01h  2
  39  4.0136316e+03 1.65e-01 2.00e+09  -1.0 2.76e+04  -1.5 1.00e+00 1.93e-04h  1
iter    objective    inf_pr   inf_du lg(mu)  ||d||  lg(rg) alpha_du alpha_pr  ls
  40  4.0859854e+03 1.61e-01 1.82e+09  -1.0 5.80e+04  -2.0 3.04e-01 1.94e-01h  2
  41  4.0857567e+03 1.59e-01 1.80e+09  -1.0 2.55e+04  -1.6 1.00e+00 9.63e-03h  1
  42  4.0646297e+03 4.52e-03 1.53e+09  -1.0 2.46e+04  -1.2 1.00e+00 9.90e-01f  1
  43  4.0664406e+03 4.94e-05 7.04e+07  -1.0 1.31e+03  -1.6 9.71e-01 9.90e-01h  1
  44  4.0664538e+03 4.95e-07 7.26e+05  -1.0 1.19e+01  -2.1 9.91e-01 9.90e-01h  1
  45  4.0664536e+03 4.80e-07 3.24e+10  -1.0 1.03e+00  -2.6 9.90e-01 3.09e-02f  6
  46  4.0664482e+03 4.21e-07 5.90e+10  -1.0 8.70e+00  -3.1 1.00e+00 1.24e-01f  4
  47  4.0663578e+03 9.84e-08 9.88e+08  -1.0 1.29e+01  -3.5 1.00e+00 9.90e-01h  1
  48  4.0660801e+03 1.32e-08 3.98e+10  -1.0 4.04e+01  -4.0 1.00e+00 9.90e-01H  1
In iteration 48, 32 Slacks too small, adjusting variable bounds
  49  2.6827426e+03 4.25e-01 2.88e+14  -1.0 4.01e+05    -  2.66e-01 9.90e-01f  1
iter    objective    inf_pr   inf_du lg(mu)  ||d||  lg(rg) alpha_du alpha_pr  ls
  50  2.7924400e+03 3.02e-01 3.80e+13  -1.0 2.87e+04  -4.5 5.40e-03 8.29e-01h  1
  51  2.7935990e+03 2.96e-01 6.60e+13  -1.0 6.42e+03  -4.1 1.00e+00 2.03e-02h  1
  52  2.8542142e+03 1.97e-02 1.24e+05  -1.0 9.77e+03  -4.5 1.00e+00 1.00e+00h  1
  53  2.8545719e+03 4.70e-05 6.28e+10  -3.8 6.32e+02  -5.0 9.85e-01 1.00e+00h  1
  54  2.8523685e+03 3.09e-05 4.78e+01  -3.8 4.70e+02  -5.5 1.00e+00 1.00e+00f  1
  55  2.5600489e+03 2.59e+01 2.81e+09  -5.7 2.56e+05    -  3.75e-02 5.00e-01f  2
  56  2.9065948e+03 3.09e+01 4.75e+09  -5.7 1.86e+05  -6.0 1.89e-01 1.00e+00h  1
  57  2.9933137e+03 3.42e+01 4.57e+09  -5.7 2.59e+05  -5.6 3.60e-02 4.76e-01h  2
  58  2.8105879e+03 3.36e+01 4.26e+09  -5.7 1.69e+06  -4.2 6.84e-02 1.83e-02f  1
  59  2.7419050e+03 3.34e+01 4.25e+09  -5.7 9.06e+06  -3.8 3.81e-03 6.17e-03f  1
iter    objective    inf_pr   inf_du lg(mu)  ||d||  lg(rg) alpha_du alpha_pr  ls
  60  2.7780765e+03 2.69e+01 4.25e+09  -5.7 4.24e+05  -3.4 3.72e-07 1.93e-01h  2
  61  2.7810933e+03 2.34e+01 3.39e+09  -5.7 5.17e+05  -2.9 2.02e-01 1.32e-01h  1
  62r 2.7810933e+03 2.34e+01 1.00e+03   1.4 0.00e+00  -1.6 0.00e+00 1.03e-07R  2
  63r 2.7810446e+03 1.34e+01 1.03e+03   1.4 5.98e+06    -  5.45e-06 2.63e-06f  1
  64  2.9053006e+03 1.23e+01 1.94e+03  -5.7 1.11e+06    -  5.07e-03 8.67e-02h  3
  65  5.9053749e+03 1.02e+01 1.27e+05  -5.7 1.36e+06    -  7.10e-04 3.55e-01h  1
  66  5.9053714e+03 1.02e+01 1.27e+05  -5.7 6.74e+05  -2.1 1.71e-01 4.53e-06h  1
In iteration 66, 1 Slack too small, adjusting variable bound
  67  6.0855254e+03 1.14e+01 1.73e+09  -5.7 6.75e+05  -2.6 1.71e-01 4.94e-01h  1
In iteration 67, 1 Slack too small, adjusting variable bound
  68  6.0441877e+03 1.12e+01 1.70e+09  -5.7 9.37e+05  -2.1 2.34e-01 1.52e-02f  1
  69  8.7731082e+03 1.19e+01 2.69e+09  -5.7 8.52e+05  -2.6 2.17e-01 2.37e-01h  1
iter    objective    inf_pr   inf_du lg(mu)  ||d||  lg(rg) alpha_du alpha_pr  ls
  70  1.7631714e+04 8.47e+00 8.08e+09  -5.7 4.93e+05  -2.2 2.47e-05 1.00e+00h  1
In iteration 70, 1 Slack too small, adjusting variable bound
  71  1.7631713e+04 8.47e+00 8.31e+09  -5.7 1.77e+05   2.7 3.36e-02 7.29e-07h  1
  72  1.7628642e+04 1.94e+01 3.86e+11  -5.7 2.69e+05   2.3 2.99e-02 4.35e-03f  3
  73  1.7298325e+04 1.60e+01 3.11e+11  -5.7 1.79e+05   1.8 2.70e-01 1.75e-01f  1
MA27BD returned iflag=-4 and requires more memory.
 Increase liw from 35915 to 71830 and la from 38400 to 79950 and factorize again.
  74  1.7298322e+04 1.60e+01 3.11e+11  -5.7 1.99e+05   1.3 2.94e-01 9.97e-07h  1
In iteration 74, 1 Slack too small, adjusting variable bound
  75  1.5707576e+04 6.60e+00 2.71e+11  -5.7 1.93e+05   0.8 4.25e-02 5.88e-01f  1
In iteration 75, 1 Slack too small, adjusting variable bound
  76  1.5700529e+04 6.58e+00 2.70e+11  -5.7 1.98e+05   0.4 5.40e-02 1.86e-03f  1
  77  1.5706284e+04 6.46e+00 2.66e+11  -5.7 1.19e+06  -0.1 5.70e-03 1.91e-02h  3
In iteration 77, 1 Slack too small, adjusting variable bound
  78  1.5438153e+04 6.00e+00 2.50e+11  -5.7 2.13e+05   0.3 8.49e-05 7.16e-02f  1
In iteration 78, 1 Slack too small, adjusting variable bound
  79  1.5151493e+04 5.41e+00 2.31e+11  -5.7 1.97e+05   0.7 9.25e-07 9.82e-02f  1
In iteration 79, 1 Slack too small, adjusting variable bound
iter    objective    inf_pr   inf_du lg(mu)  ||d||  lg(rg) alpha_du alpha_pr  ls
  80  1.4854113e+04 4.83e+00 2.15e+11  -5.7 1.93e+05   1.2 1.77e-02 1.06e-01f  1
In iteration 80, 1 Slack too small, adjusting variable bound
  81  1.4033294e+04 3.83e+00 1.63e+11  -5.7 1.85e+05   0.7 3.77e-02 2.08e-01f  1
In iteration 81, 1 Slack too small, adjusting variable bound
  82  1.3274791e+04 2.60e+00 2.10e+11  -5.7 1.45e+05   1.1 5.31e-01 3.21e-01f  1
In iteration 82, 2 Slacks too small, adjusting variable bounds
  83  1.0703077e+04 3.28e-01 5.79e+11  -5.7 1.78e+05   0.6 3.45e-01 9.93e-01f  1
In iteration 83, 2 Slacks too small, adjusting variable bounds
  84  1.1069683e+04 1.25e-01 6.34e+11  -5.7 8.10e+04   0.2 4.73e-01 6.34e-01h  1
In iteration 84, 4 Slacks too small, adjusting variable bounds
  85  1.1091934e+04 8.29e-02 4.20e+11  -5.7 1.72e+04  -0.3 6.85e-01 3.36e-01h  1
  86  1.1097007e+04 8.40e-03 8.03e+09  -5.7 3.10e+04  -0.8 1.38e-01 1.00e+00h  1
  87  1.1106454e+04 3.18e-05 1.47e+08  -5.7 1.75e+03  -1.3 7.62e-01 1.00e+00h  1
  88  1.1106456e+04 1.93e-10 2.70e+06  -5.7 5.02e+00  -1.8 8.03e-01 1.00e+00h  1
  89  1.1106440e+04 1.36e-10 1.11e+07  -5.7 1.02e+00  -2.2 3.55e-01 1.00e+00f  1
iter    objective    inf_pr   inf_du lg(mu)  ||d||  lg(rg) alpha_du alpha_pr  ls
  90  5.5579871e+03 7.27e+00 6.49e+06  -5.7 1.06e+06    -  5.92e-01 4.33e-01f  2
  91  4.2701310e+03 1.61e+01 5.02e+06  -5.7 1.33e+06    -  3.17e-01 2.06e-01f  2
  92  3.9601001e+03 9.67e+00 1.52e+05  -5.7 2.75e+05    -  6.01e-01 1.00e+00f  1
  93  3.7462019e+03 1.11e+01 7.09e+06  -5.7 7.08e+04  -2.7 8.10e-01 1.00e+00f  1
  94  3.8004838e+03 1.63e+00 6.97e+06  -5.7 2.99e+04  -3.2 2.96e-01 1.00e+00h  1
  95  4.0928987e+03 1.27e+00 9.18e+05  -5.7 2.83e+04  -3.7 8.85e-01 1.00e+00h  1
  96  4.3266874e+03 3.53e-01 4.25e+05  -5.7 2.21e+04  -4.1 2.63e-01 1.00e+00h  1
  97  4.3652902e+03 9.97e-02 6.04e+04  -5.7 1.03e+04  -4.6 7.38e-01 1.00e+00h  1
  98  4.3655539e+03 3.51e-02 1.34e+04  -5.7 1.46e+02  -2.4 4.02e-01 1.00e+00h  1
  99  4.3650809e+03 3.76e-02 2.34e+03  -5.7 4.38e+01  -2.9 6.98e-01 1.00e+00f  1
iter    objective    inf_pr   inf_du lg(mu)  ||d||  lg(rg) alpha_du alpha_pr  ls
 100  4.3637523e+03 3.51e-02 1.18e+05  -5.7 1.40e+02  -2.4 4.55e-01 1.00e+00f  1
 101  4.3606972e+03 3.91e-02 2.88e+04  -5.7 3.03e+02  -2.9 6.39e-01 1.00e+00f  1
 102  4.3589005e+03 3.48e-02 3.45e+04  -5.7 1.83e+02  -2.5 3.65e-01 1.00e+00f  1
 103  4.3555329e+03 1.19e-01 2.92e+07  -5.7 3.16e+02  -1.2 2.37e-03 1.00e+00f  1
 104  4.3460220e+03 3.30e-02 6.41e+06  -5.7 7.52e+02  -1.6 5.25e-04 1.00e+00f  1
 105  4.3350126e+03 7.00e-02 6.50e+07  -5.7 1.13e+03  -1.2 1.00e+00 1.00e+00f  1
 106  4.3187819e+03 6.40e-01 1.73e+07  -5.7 1.60e+04  -1.7 1.00e+00 1.00e+00H  1
 107  4.2103368e+03 4.33e-02 2.34e+07  -5.7 1.07e+04  -2.2 3.62e-02 1.00e+00f  1
 108  4.2069463e+03 4.87e-01 1.16e+10  -5.7 1.55e+03   1.0 1.00e+00 2.50e-01f  3
 109  4.1916912e+03 1.37e-01 2.30e+09  -5.7 1.04e+03   0.5 1.00e+00 1.00e+00f  1
iter    objective    inf_pr   inf_du lg(mu)  ||d||  lg(rg) alpha_du alpha_pr  ls
 110  4.1698546e+03 2.17e-01 7.77e+08  -5.7 1.50e+03   0.0 1.00e+00 1.00e+00f  1
 111  4.1179444e+03 7.55e-02 7.80e+07  -5.7 4.58e+03  -0.5 1.00e+00 1.00e+00f  1
 112  4.1138938e+03 6.71e-02 2.52e+10  -5.7 3.75e+03   1.8 1.00e+00 1.25e-01f  4
 113  4.1001250e+03 7.87e-02 2.74e+09  -5.7 1.32e+03   1.3 1.00e+00 1.00e+00f  1
 114  4.0882976e+03 1.04e+00 2.16e+13  -5.7 5.54e+03   3.5 1.00e+00 2.50e-01f  3
 115  4.0010533e+03 3.07e-01 3.88e+12  -5.7 7.02e+03   3.1 8.25e-01 1.00e+00f  1
 116  3.9581349e+03 2.96e+00 2.32e+12  -5.7 5.38e+03   2.6 1.00e+00 5.00e-01f  2
 117  3.7317403e+03 2.99e+00 1.11e+12  -5.7 3.21e+04   2.1 8.68e-01 1.00e+00f  1
 118  3.7133854e+03 5.72e+00 1.01e+12  -5.7 3.61e+04   2.5 1.00e+00 5.01e-01f  1
 119  3.7133852e+03 5.72e+00 1.01e+12  -5.7 1.30e+05   4.8 5.24e-01 1.10e-07h  2
iter    objective    inf_pr   inf_du lg(mu)  ||d||  lg(rg) alpha_du alpha_pr  ls
 120r 3.7133852e+03 5.72e+00 1.00e+03   0.8 0.00e+00   5.2 0.00e+00 1.19e-09R 10
 121r 3.7133813e+03 1.08e+00 1.00e+03   0.8 5.01e+03    -  2.76e-04 1.13e-03f  1
 122  3.6305435e+03 8.60e+01 5.78e+04  -5.7 4.61e+04    -  5.86e-01 4.17e-01f  2
 123  3.6306506e+03 8.60e+01 5.73e+08  -5.7 4.40e+05   4.7 4.29e-01 5.10e-05h  1
 124r 3.6306506e+03 8.60e+01 1.00e+03   1.9 0.00e+00   4.2 0.00e+00 1.14e-10R  2
 125r 3.6306502e+03 3.11e+01 1.01e+03   1.9 1.98e+04    -  2.77e-03 2.77e-03f  1
 126  3.6635019e+03 3.01e+01 4.61e+05  -5.7 4.89e+06    -  9.38e-02 3.03e-02h  3
 127  3.6352022e+03 2.26e+01 4.72e+14  -5.7 1.98e+05   3.8 1.61e-06 2.50e-01f  3
 128  3.6993046e+03 2.10e+01 5.79e+15  -5.7 3.92e+05   5.1 4.23e-01 6.96e-02h  4
 129  3.7124261e+03 2.09e+01 5.83e+15  -5.7 3.54e+05   5.5 5.25e-01 7.55e-03h  8
iter    objective    inf_pr   inf_du lg(mu)  ||d||  lg(rg) alpha_du alpha_pr  ls
 130  3.7133696e+03 2.09e+01 5.83e+15  -5.7 4.90e+05   5.0 2.05e-01 5.45e-04h 11
 131  6.2972912e+03 6.97e+00 7.78e+17  -5.7 3.61e+05   5.5 5.56e-01 6.66e-01h  1
 132  6.2972881e+03 6.97e+00 7.78e+17  -5.7 1.71e+05   7.7 6.40e-01 4.06e-06h  1
 133r 6.2972881e+03 6.97e+00 1.00e+03   0.8 0.00e+00   7.2 0.00e+00 5.02e-12R  2
 134r 6.2972808e+03 1.89e+00 1.04e+03   0.8 5.59e+03    -  4.50e-03 1.23e-03f  1
 135  6.0795254e+03 1.82e+01 5.29e+02  -5.7 3.57e+05    -  3.59e-02 1.25e-01f  4
 136  5.2235307e+03 6.81e-01 4.38e+03  -5.7 4.31e+05    -  5.70e-01 1.00e+00f  1
 137  4.5484535e+03 3.08e-01 6.84e+03  -5.7 1.96e+05    -  5.74e-01 1.00e+00f  1
 138  4.1323072e+03 6.45e+00 1.66e+07  -5.7 2.52e+05    -  4.15e-03 1.00e+00f  1
 139  4.0965881e+03 6.22e+00 4.18e+07  -5.7 2.17e+05    -  7.95e-01 3.48e-02f  1
iter    objective    inf_pr   inf_du lg(mu)  ||d||  lg(rg) alpha_du alpha_pr  ls
 140  4.0960313e+03 6.22e+00 4.35e+07  -5.7 5.49e+06    -  1.12e-01 6.59e-05f  1
 141  4.0562194e+03 6.14e+00 4.28e+07  -5.7 1.01e+07    -  1.47e-06 1.30e-02f  3
 142  4.0076942e+03 2.06e+01 3.61e+07  -5.7 7.30e+05    -  2.52e-02 1.24e-01f  3
 143r 4.0076942e+03 2.06e+01 1.00e+03   1.3 0.00e+00   6.7 0.00e+00 2.50e-08R  2
 144r 4.0077028e+03 2.06e+01 1.24e+03   1.3 1.58e+05    -  2.14e-08 3.66e-05f  1
 145r 4.0077006e+03 3.43e+00 1.23e+03   1.3 1.47e+04    -  5.26e-05 1.39e-03f  1
 146  3.3628453e+03 1.91e+01 7.07e+02  -5.7 1.14e+05    -  7.86e-01 1.00e+00f  1
 147  2.9472707e+03 7.97e+00 3.13e+04  -5.7 1.77e+05    -  1.06e-01 1.00e+00f  1
 148  2.7169765e+03 4.40e+00 7.29e+07  -5.7 9.88e+04    -  3.49e-02 1.00e+00f  1
 149  2.2022782e+03 4.61e+01 1.68e+07  -5.7 1.63e+05    -  7.69e-01 1.00e+00f  1
iter    objective    inf_pr   inf_du lg(mu)  ||d||  lg(rg) alpha_du alpha_pr  ls
 150  2.2127683e+03 4.46e+01 2.71e+14  -5.7 1.21e+05   6.3 2.59e-01 3.12e-02h  6
 151  2.5581270e+03 1.61e+01 6.52e+16  -5.7 1.31e+05   5.8 4.39e-01 1.00e+00h  1
 152  2.4640491e+03 3.72e+01 8.78e+16  -5.7 1.04e+05   6.2 7.67e-01 1.00e+00f  1
 153  2.5410669e+03 1.35e+01 1.04e+16  -5.7 4.51e+04   5.7 7.98e-01 1.00e+00h  1
 154  2.5645143e+03 6.73e+00 6.96e+17  -5.7 7.65e+04   8.0 8.53e-01 5.00e-01h  2
 155  2.5924356e+03 6.52e+00 6.70e+17  -5.7 1.68e+05   7.5 7.09e-01 3.12e-02h  6
 156  2.6085211e+03 6.42e+00 6.59e+17  -5.7 2.09e+05   7.0 7.92e-01 1.56e-02h  7
 157  2.8162711e+03 4.84e+00 4.30e+17  -5.7 1.56e+05   7.4 8.31e-01 2.47e-01h  3
 158  2.9885466e+03 5.37e+00 1.20e+18  -5.7 5.36e+04   7.9 9.50e-01 1.00e+00h  1
 159  3.1884928e+03 2.74e+00 7.63e+17  -5.7 8.97e+04   7.4 9.60e-01 5.00e-01h  2
iter    objective    inf_pr   inf_du lg(mu)  ||d||  lg(rg) alpha_du alpha_pr  ls
 160  3.2697140e+03 2.40e+00 6.59e+17  -5.7 1.10e+05   6.9 9.95e-01 1.25e-01h  4
 161  3.2728480e+03 2.39e+00 6.56e+17  -5.7 2.47e+05   6.4 1.00e+00 3.61e-03h  9
 162  4.0526088e+03 2.14e+00 1.67e+18  -5.7 7.41e+04   6.9 1.00e+00 1.00e+00H  1
 163  3.9698618e+03 2.76e+00 1.80e+17  -5.7 1.48e+04   7.3 7.83e-01 1.00e+00f  1
 164  3.8620131e+03 1.20e-02 8.90e+16  -5.7 1.17e+04   6.8 1.00e+00 1.00e+00f  1
 165  3.8554706e+03 4.64e-04 3.65e+15  -5.7 2.96e+03   6.3 1.00e+00 1.00e+00f  1
 166  3.8555485e+03 9.62e-07 1.12e+12  -5.7 7.40e+01   5.8 1.00e+00 1.00e+00h  1
 167  3.8555485e+03 3.05e-13 2.93e+06  -5.7 9.55e-03   5.4 1.00e+00 1.00e+00h  1
 168  3.8555485e+03 3.55e-13 6.28e-03  -5.7 8.04e-08   4.9 1.00e+00 1.00e+00h  1
 169  3.8555485e+03 4.13e-13 2.67e-03  -8.6 1.02e-07   4.4 1.00e+00 1.00e+00h  1
iter    objective    inf_pr   inf_du lg(mu)  ||d||  lg(rg) alpha_du alpha_pr  ls
 170  2.4518300e+03 5.82e+00 5.16e+02  -8.6 3.79e+05    -  1.00e+00 4.98e-01f  1
In iteration 170, 1 Slack too small, adjusting variable bound
 171  2.4518300e+03 5.82e+00 5.16e+02  -8.6 4.02e+05    -  1.00e+00 3.57e-10h  1
In iteration 171, 1 Slack too small, adjusting variable bound
 172  1.8775548e+03 1.81e+01 2.08e+03  -8.6 3.56e+05    -  1.00e+00 4.46e-01f  1
 173  1.8902697e+03 1.58e+01 9.97e+12  -8.6 1.12e+05   3.9 8.06e-11 1.25e-01h  4
 174  1.9792512e+03 7.92e+00 4.30e+13  -8.6 8.09e+04   3.5 3.43e-02 5.00e-01h  2
 175  1.9930173e+03 5.51e+00 3.29e+13  -8.6 5.61e+04   3.0 1.00e+00 3.04e-01h  1
 176r 1.9930173e+03 5.51e+00 1.00e+03   0.7 0.00e+00   3.4 0.00e+00 5.18e-10R  2
 177r 1.9929529e+03 5.86e+00 1.00e+03   0.7 2.43e+09    -  1.36e-08 1.89e-08f  1
 178r 1.9929634e+03 3.16e+00 1.00e+03   0.7 5.20e+03    -  7.15e-03 1.13e-03f  1
 179  1.4669448e+03 1.33e+01 3.76e+02  -8.6 1.98e+05    -  5.84e-01 7.45e-01f  1
iter    objective    inf_pr   inf_du lg(mu)  ||d||  lg(rg) alpha_du alpha_pr  ls
 180  1.4572481e+03 1.00e+01 5.99e+02  -8.6 1.95e+05    -  6.90e-01 1.00e+00f  1
In iteration 180, 1 Slack too small, adjusting variable bound
 181  1.3996737e+03 7.08e+00 5.10e+04  -8.6 1.20e+05    -  7.90e-01 2.94e-01f  1
 182  1.3009827e+03 2.74e+01 6.70e+03  -8.6 1.59e+05    -  7.02e-01 1.00e+00f  1
 183  1.5335656e+03 1.14e+01 4.79e+12  -8.6 6.83e+05    -  1.22e-01 6.67e-01H  1
 184  1.5335656e+03 1.13e+01 5.47e+16  -8.6 1.42e+01   6.1 1.97e-08 8.44e-04H  1
 185  1.5335656e+03 1.13e+01 8.10e+16  -8.6 6.07e+00   6.9 4.91e-03 4.66e-04h  1
 186r 1.5335656e+03 1.13e+01 1.00e+03   1.1 0.00e+00   6.9 0.00e+00 3.36e-12R  2
 187r 1.5335656e+03 1.03e+01 4.40e+05   1.1 1.75e+05    -  4.81e-07 1.50e-08f  6
MA27BD returned iflag=-4 and requires more memory.
 Increase liw from 71830 to 143660 and la from 79950 to 161736 and factorize again.
 188r 1.5335656e+03 1.13e+01 9.99e+02   1.1 2.91e+00   3.5 8.06e-03 7.48e-03f  1
 189r 1.5335666e+03 1.03e+01 1.47e+11   1.1 6.82e+03    -  3.26e-02 1.32e-03f  1
iter    objective    inf_pr   inf_du lg(mu)  ||d||  lg(rg) alpha_du alpha_pr  ls
 190r 1.5335666e+03 1.03e+01 4.77e+13   1.1 5.36e+00   6.2 1.29e-03 5.68e-04h  1
 191r 1.5335666e+03 9.30e+00 1.03e+22   1.1 6.23e-02  14.0 1.78e-04 9.00e-02H  1
 192  1.5324235e+03 7.94e+00 3.34e+04  -8.6 1.54e+12    -  1.89e-11 5.00e-11H  1
 193  1.5031707e+03 1.53e+01 7.87e+06  -8.6 1.47e+05    -  4.27e-01 6.37e-02f  2
 194  1.5115123e+03 1.53e+01 7.87e+06  -8.6 5.43e+15    -  2.50e-13 2.19e-12h  1
 195  1.4980488e+03 1.53e+01 8.24e+21  -8.6 7.38e+13    -  2.12e-17 3.41e-10f  1
WARNING: Problem in step computation; switching to emergency mode.
 196r 1.4980488e+03 1.53e+01 9.99e+02   1.2 0.00e+00  18.0 0.00e+00 0.00e+00R  1
 197r 1.4980474e+03 1.53e+01 2.49e+06   1.2 3.83e+08    -  5.16e-08 2.43e-08f  3
 198r 1.4980474e+03 1.53e+01 8.87e+12   1.2 3.70e+00   4.4 1.49e-02 1.49e-02f  1
 199r 1.4980474e+03 1.53e+01 5.93e+06   1.2 5.80e-01   8.9 4.01e-02 4.01e-02s 18
iter    objective    inf_pr   inf_du lg(mu)  ||d||  lg(rg) alpha_du alpha_pr  ls
 200r 1.4980474e+03 1.53e+01 5.93e+06   1.2 4.84e+00   8.4 0.00e+00 0.00e+00R  1
 201r 1.4980474e+03 1.53e+01 3.55e+12   1.2 3.41e-05   7.9 9.91e-01 1.00e+00f  1
WARNING: Problem in step computation; switching to emergency mode.
 202r 1.4980474e+03 1.53e+01 3.55e+12   1.2 3.41e-05  18.9 0.00e+00 0.00e+00R  1
WARNING: Problem in step computation; switching to emergency mode.
Restoration phase is called at point that is almost feasible,
  with constraint violation 0.000000e+00. Abort.
Restoration phase in the restoration phase failed.

Number of Iterations....: 202

                                   (scaled)                 (unscaled)
Objective...............:   1.4980473874734842e+03    1.4980473874734842e+03
Dual infeasibility......:   3.5472248035912524e+12    3.5472248035912524e+12
Constraint violation....:   1.5267023948140292e+01    1.5267023948140292e+01
Complementarity.........:   1.6404607076637344e+01    1.6404607076637344e+01
Overall NLP error.......:   2.3275759058532852e+12    3.5472248035912524e+12


Number of objective function evaluations             = 529
Number of objective gradient evaluations             = 191
Number of equality constraint evaluations            = 530
Number of inequality constraint evaluations          = 0
Number of equality constraint Jacobian evaluations   = 212
Number of inequality constraint Jacobian evaluations = 0
Number of Lagrangian Hessian evaluations             = 203
Total CPU secs in IPOPT (w/o function evaluations)   =      1.376
Total CPU secs in NLP function evaluations           =      9.153

EXIT: Restoration Failed!
